(set-option :produce-models true)
(set-logic QF_LRA)
(set-info :notes | Strip-packing problem.|)
(declare-fun x0 () Real)
(declare-fun y0 () Real)
(declare-fun x1 () Real)
(declare-fun y1 () Real)
(declare-fun x2 () Real)
(declare-fun y2 () Real)
(declare-fun x3 () Real)
(declare-fun y3 () Real)
(declare-fun x4 () Real)
(declare-fun y4 () Real)
(declare-fun x5 () Real)
(declare-fun y5 () Real)
(declare-fun x6 () Real)
(declare-fun y6 () Real)
(declare-fun x7 () Real)
(declare-fun y7 () Real)
(declare-fun x8 () Real)
(declare-fun y8 () Real)
(declare-fun z () Real)
(declare-fun c () Real)
(assert (and (= c z) (and (>= x0 0) 
(and (>= y0 0) 
(and (>= x1 0) 
(and (>= y1 0) 
(and (>= x2 0) 
(and (>= y2 0) 
(and (>= x3 0) 
(and (>= y3 0) 
(and (>= x4 0) 
(and (>= y4 0) 
(and (>= x5 0) 
(and (>= y5 0) 
(and (>= x6 0) 
(and (>= y6 0) 
(and (>= x7 0) 
(and (>= y7 0) 
(and (>= x8 0) 
(and (>= y8 0) 
(and (>= z 0) 
(and (>= c 0) 
(and (<= (+ x0 0.0380148362) z) 
(and (<= 0.8234475345 y0) 
(and (<= y0 1.0) 
(and (<= x0 (- 4.2199607112 0.0380148362)) 
(and (>= x0 0) 
(and (<= (+ x1 0.9681535196) z) 
(and (<= 0.7175738538 y1) 
(and (<= y1 1.0) 
(and (<= x1 (- 4.2199607112 0.9681535196)) 
(and (>= x1 0) 
(and (<= (+ x2 0.8716276306) z) 
(and (<= 0.6516107673 y2) 
(and (<= y2 1.0) 
(and (<= x2 (- 4.2199607112 0.8716276306)) 
(and (>= x2 0) 
(and (<= (+ x3 0.1202506815) z) 
(and (<= 0.5592377795 y3) 
(and (<= y3 1.0) 
(and (<= x3 (- 4.2199607112 0.1202506815)) 
(and (>= x3 0) 
(and (<= (+ x4 0.3804201431) z) 
(and (<= 0.5393339183 y4) 
(and (<= y4 1.0) 
(and (<= x4 (- 4.2199607112 0.3804201431)) 
(and (>= x4 0) 
(and (<= (+ x5 0.8701259266) z) 
(and (<= 0.3587339207 y5) 
(and (<= y5 1.0) 
(and (<= x5 (- 4.2199607112 0.8701259266)) 
(and (>= x5 0) 
(and (<= (+ x6 0.0382088301) z) 
(and (<= 0.3356812655 y6) 
(and (<= y6 1.0) 
(and (<= x6 (- 4.2199607112 0.0382088301)) 
(and (>= x6 0) 
(and (<= (+ x7 0.5413932906) z) 
(and (<= 0.1221320963 y7) 
(and (<= y7 1.0) 
(and (<= x7 (- 4.2199607112 0.5413932906)) 
(and (>= x7 0) 
(and (<= (+ x8 0.9713679736) z) 
(and (<= 0.1038183292 y8) 
(and (<= y8 1.0) 
(and (<= x8 (- 4.2199607112 0.9713679736)) 
(and (>= x8 0) 
(and (<= c 4.2199607112) 
(and (or (<= (+ x0 0.0380148362) x1) (or (<= (+ x1 0.9681535196) x0) (or (>= (- y0 0.8234475345) y1) (or (>= (- y1 0.7175738538) y0))))) 
(and (or (<= (+ x0 0.0380148362) x2) (or (<= (+ x2 0.8716276306) x0) (or (>= (- y0 0.8234475345) y2) (or (>= (- y2 0.6516107673) y0))))) 
(and (or (<= (+ x0 0.0380148362) x3) (or (<= (+ x3 0.1202506815) x0) (or (>= (- y0 0.8234475345) y3) (or (>= (- y3 0.5592377795) y0))))) 
(and (or (<= (+ x0 0.0380148362) x4) (or (<= (+ x4 0.3804201431) x0) (or (>= (- y0 0.8234475345) y4) (or (>= (- y4 0.5393339183) y0))))) 
(and (or (<= (+ x0 0.0380148362) x5) (or (<= (+ x5 0.8701259266) x0) (or (>= (- y0 0.8234475345) y5) (or (>= (- y5 0.3587339207) y0))))) 
(and (or (<= (+ x0 0.0380148362) x6) (or (<= (+ x6 0.0382088301) x0) (or (>= (- y0 0.8234475345) y6) (or (>= (- y6 0.3356812655) y0))))) 
(and (or (<= (+ x0 0.0380148362) x7) (or (<= (+ x7 0.5413932906) x0) (or (>= (- y0 0.8234475345) y7) (or (>= (- y7 0.1221320963) y0))))) 
(and (or (<= (+ x0 0.0380148362) x8) (or (<= (+ x8 0.9713679736) x0) (or (>= (- y0 0.8234475345) y8) (or (>= (- y8 0.1038183292) y0))))) 
(and (or (<= (+ x1 0.9681535196) x2) (or (<= (+ x2 0.8716276306) x1) (or (>= (- y1 0.7175738538) y2) (or (>= (- y2 0.6516107673) y1))))) 
(and (or (<= (+ x1 0.9681535196) x3) (or (<= (+ x3 0.1202506815) x1) (or (>= (- y1 0.7175738538) y3) (or (>= (- y3 0.5592377795) y1))))) 
(and (or (<= (+ x1 0.9681535196) x4) (or (<= (+ x4 0.3804201431) x1) (or (>= (- y1 0.7175738538) y4) (or (>= (- y4 0.5393339183) y1))))) 
(and (or (<= (+ x1 0.9681535196) x5) (or (<= (+ x5 0.8701259266) x1) (or (>= (- y1 0.7175738538) y5) (or (>= (- y5 0.3587339207) y1))))) 
(and (or (<= (+ x1 0.9681535196) x6) (or (<= (+ x6 0.0382088301) x1) (or (>= (- y1 0.7175738538) y6) (or (>= (- y6 0.3356812655) y1))))) 
(and (or (<= (+ x1 0.9681535196) x7) (or (<= (+ x7 0.5413932906) x1) (or (>= (- y1 0.7175738538) y7) (or (>= (- y7 0.1221320963) y1))))) 
(and (or (<= (+ x1 0.9681535196) x8) (or (<= (+ x8 0.9713679736) x1) (or (>= (- y1 0.7175738538) y8) (or (>= (- y8 0.1038183292) y1))))) 
(and (or (<= (+ x2 0.8716276306) x3) (or (<= (+ x3 0.1202506815) x2) (or (>= (- y2 0.6516107673) y3) (or (>= (- y3 0.5592377795) y2))))) 
(and (or (<= (+ x2 0.8716276306) x4) (or (<= (+ x4 0.3804201431) x2) (or (>= (- y2 0.6516107673) y4) (or (>= (- y4 0.5393339183) y2))))) 
(and (or (<= (+ x2 0.8716276306) x5) (or (<= (+ x5 0.8701259266) x2) (or (>= (- y2 0.6516107673) y5) (or (>= (- y5 0.3587339207) y2))))) 
(and (or (<= (+ x2 0.8716276306) x6) (or (<= (+ x6 0.0382088301) x2) (or (>= (- y2 0.6516107673) y6) (or (>= (- y6 0.3356812655) y2))))) 
(and (or (<= (+ x2 0.8716276306) x7) (or (<= (+ x7 0.5413932906) x2) (or (>= (- y2 0.6516107673) y7) (or (>= (- y7 0.1221320963) y2))))) 
(and (or (<= (+ x2 0.8716276306) x8) (or (<= (+ x8 0.9713679736) x2) (or (>= (- y2 0.6516107673) y8) (or (>= (- y8 0.1038183292) y2))))) 
(and (or (<= (+ x3 0.1202506815) x4) (or (<= (+ x4 0.3804201431) x3) (or (>= (- y3 0.5592377795) y4) (or (>= (- y4 0.5393339183) y3))))) 
(and (or (<= (+ x3 0.1202506815) x5) (or (<= (+ x5 0.8701259266) x3) (or (>= (- y3 0.5592377795) y5) (or (>= (- y5 0.3587339207) y3))))) 
(and (or (<= (+ x3 0.1202506815) x6) (or (<= (+ x6 0.0382088301) x3) (or (>= (- y3 0.5592377795) y6) (or (>= (- y6 0.3356812655) y3))))) 
(and (or (<= (+ x3 0.1202506815) x7) (or (<= (+ x7 0.5413932906) x3) (or (>= (- y3 0.5592377795) y7) (or (>= (- y7 0.1221320963) y3))))) 
(and (or (<= (+ x3 0.1202506815) x8) (or (<= (+ x8 0.9713679736) x3) (or (>= (- y3 0.5592377795) y8) (or (>= (- y8 0.1038183292) y3))))) 
(and (or (<= (+ x4 0.3804201431) x5) (or (<= (+ x5 0.8701259266) x4) (or (>= (- y4 0.5393339183) y5) (or (>= (- y5 0.3587339207) y4))))) 
(and (or (<= (+ x4 0.3804201431) x6) (or (<= (+ x6 0.0382088301) x4) (or (>= (- y4 0.5393339183) y6) (or (>= (- y6 0.3356812655) y4))))) 
(and (or (<= (+ x4 0.3804201431) x7) (or (<= (+ x7 0.5413932906) x4) (or (>= (- y4 0.5393339183) y7) (or (>= (- y7 0.1221320963) y4))))) 
(and (or (<= (+ x4 0.3804201431) x8) (or (<= (+ x8 0.9713679736) x4) (or (>= (- y4 0.5393339183) y8) (or (>= (- y8 0.1038183292) y4))))) 
(and (or (<= (+ x5 0.8701259266) x6) (or (<= (+ x6 0.0382088301) x5) (or (>= (- y5 0.3587339207) y6) (or (>= (- y6 0.3356812655) y5))))) 
(and (or (<= (+ x5 0.8701259266) x7) (or (<= (+ x7 0.5413932906) x5) (or (>= (- y5 0.3587339207) y7) (or (>= (- y7 0.1221320963) y5))))) 
(and (or (<= (+ x5 0.8701259266) x8) (or (<= (+ x8 0.9713679736) x5) (or (>= (- y5 0.3587339207) y8) (or (>= (- y8 0.1038183292) y5))))) 
(and (or (<= (+ x6 0.0382088301) x7) (or (<= (+ x7 0.5413932906) x6) (or (>= (- y6 0.3356812655) y7) (or (>= (- y7 0.1221320963) y6))))) 
(and (or (<= (+ x6 0.0382088301) x8) (or (<= (+ x8 0.9713679736) x6) (or (>= (- y6 0.3356812655) y8) (or (>= (- y8 0.1038183292) y6))))) 
(and (or (<= (+ x7 0.5413932906) x8) (or (<= (+ x8 0.9713679736) x7) (or (>= (- y7 0.1221320963) y8) (or (>= (- y8 0.1038183292) y7))))) ))))))))))))))))))))))))))))))))))))))))))))))))))))))))))))))))))))))))))))))))))))))))))))))))))))))))
(minimize c)
(check-sat)
(get-objectives)
(exit)
